pure_adt/isaplanner_prop_08.smt2
(set-logic HORN)
(declare-datatypes ((Nat_57 0)) (((Z_164 ) (S_57 (projS_54 Nat_57)))))
(declare-fun diseqNat_57 (Nat_57 Nat_57) Bool)
(declare-fun projS_55 (Nat_57 Nat_57) Bool)
(declare-fun isZ_57 (Nat_57) Bool)
(declare-fun isS_57 (Nat_57) Bool)
(assert (forall ((x_1665 Nat_57))
	(projS_55 x_1665 (S_57 x_1665))))
(assert (isZ_57 Z_164))
(assert (forall ((x_1667 Nat_57))
	(isS_57 (S_57 x_1667))))
(assert (forall ((x_1668 Nat_57))
	(diseqNat_57 Z_164 (S_57 x_1668))))
(assert (forall ((x_1669 Nat_57))
	(diseqNat_57 (S_57 x_1669) Z_164)))
(assert (forall ((x_1670 Nat_57) (x_1671 Nat_57))
	(=> (diseqNat_57 x_1670 x_1671)
	    (diseqNat_57 (S_57 x_1670) (S_57 x_1671)))))
(declare-fun x_1647 (Nat_57 Nat_57 Nat_57) Bool)
(assert (forall ((x_1652 Nat_57) (x_1649 Nat_57) (z_165 Nat_57))
	(=> (x_1647 x_1652 z_165 x_1649)
	    (x_1647 x_1652 (S_57 z_165) (S_57 x_1649)))))
(assert (forall ((z_165 Nat_57))
	(x_1647 (S_57 z_165) (S_57 z_165) Z_164)))
(assert (forall ((y_131 Nat_57))
	(x_1647 Z_164 Z_164 y_131)))
(declare-fun x_1650 (Nat_57 Nat_57 Nat_57) Bool)
(assert (forall ((x_1657 Nat_57) (z_166 Nat_57) (y_132 Nat_57))
	(=> (x_1650 x_1657 z_166 y_132)
	    (x_1650 (S_57 x_1657) (S_57 z_166) y_132))))
(assert (forall ((x_1658 Nat_57))
	(x_1650 x_1658 Z_164 x_1658)))
(assert (forall ((x_1659 Nat_57) (x_1660 Nat_57) (x_1661 Nat_57) (x_1662 Nat_57) (k_1 Nat_57) (m_3 Nat_57) (n_13 Nat_57))
	(=>	(and true
			(diseqNat_57 x_1661 x_1662)
			(x_1650 x_1659 k_1 m_3)
			(x_1650 x_1660 k_1 n_13)
			(x_1647 x_1661 x_1659 x_1660)
			(x_1647 x_1662 m_3 n_13))
		false)))
(check-sat)
